db/data/16343228041385117810238226135470228952.z3.out
-------------------
2500.210423552
